
  12   12
  10   10   10   10   10   10   10   10   10   10   10   10

   0   0   0   0   0   0   0   0   0   0   0   0   0   2 2 4 
   9   1   0   1   0   0   0   1   0   0   1   0   1   4 11 10 9 3 
   5   0   0   0   0   0   0   6   0   0   0   0   0   3 8 7 6 
   6   9   0   0   1   0   0   0   1   0   0   1   7   1 5 
   2   0   0   6   0   0   1   4   4   1   0   0   0   1 6 
   8   0   0   4   6   0   9   0   9   4   8   0   0   1 12
   9   0   0   0   0   0   0   0   0   6   0   0   0   1 12
   6   0   0   9   0   0   0   0   0   0   0   8   0   1 12
   4   0   5   0   0   0   0   0   6   0   6   6   0   1 12
   3   0   0   0   0   5   0  10   0   9   0   0   0   1 12
   6   0   0   0   8   0   0   4   0   0   0   0   7   1 12
   0   0   0   0   0   0   0   0   0   0   0   0   0   0 
